WARNING: for repeatability, setting FPU to use double precision
============================[ Problem Statistics ]=============================
|                                                                             |
|  Number of variables:         75159                                         |
|  Number of clauses:          256064                                         |
|  Parse time:                   0.07 s                                       |
|                                                                             |
c ============================[ Search Statistics ]==============================
c | Conflicts |          ORIGINAL         |          LEARNT          | Progress |
c |           |    Vars  Clauses Literals |    Limit  Clauses Lit/Cl |          |
c ===============================================================================
c Switched to VSIDS.
c Switched to LRB.
c Switched to VSIDS.
c Switched to LRB.
c Switched to VSIDS.
c Switched to LRB.
c Switched to VSIDS.
c Switched to LRB.
c Switched to VSIDS.
c Switched to LRB.
c Switched to VSIDS.
c Switched to LRB.
c Switched to VSIDS.
c Switched to LRB.
c Switched to VSIDS.
c Switched to LRB.
c Switched to VSIDS.
c Switched to LRB.
c Switched to VSIDS.
c Switched to LRB.
c Switched to VSIDS.
c Switched to LRB.
c Switched to VSIDS.
c Switched to LRB.
c Switched to VSIDS.
c Switched to LRB.
c Switched to VSIDS.
c Switched to LRB.
c Switched to VSIDS.
CAREFUL: the definition is falsified in conflict 9278875 at DL 529 (has happened 1 times)
c Switched to LRB.
c Switched to VSIDS.
c Switched to LRB.
c Switched to VSIDS.
c Switched to LRB.
c ===============================================================================
restarts                  : 67508
conflicts                 : 14202130       (4017 /sec)
decisions                 : 110535061      (0.00 % random) (31268 /sec)
propagations              : 8327421205     (2355612 /sec)
conflict literals         : 1244532466     (7.73 % deleted)

conflicts w/ DIP found    : 11913776       (83.89 % of conflicts)
conflicts w/ dangerous DIP: 2              (0.00 % of conflicts)
conflicts w/ DIP-learning : 174959         (1.23 % of conflicts)
decisions on ext vars     : 3204377        (2.90 % of decisions)
total ext vars            : 16958       
tried delete ext vars     : 7           
deleted ext vars          : 7           
max ext vars              : 16951       

Memory used               : 806.00 MB
CPU time                  : 3535.14 s
DIP computation time      : 115.701 s (3.27 % of total time)
ER_sel time               : 20.9589 s
ER_add time               : 0.086236 s
ER_delC time              : 0 s
ER_delV time              : 0.001628 s
ER_sub time               : 25.3758 s
ER_stat time              : 0 s

INDETERMINATE
